\ LP format - for model browsing. Use MPS format to capture full model detail.
Minimize
  zeta_sub_1
Subject To
 R0: zeta_sub_1 + 7.22695283e+08 y_1_0 + 1.739411763e+09 y_1_1
   - 1.054850481e+09 y_1_2 + 1.761193777e+09 y_1_3 - 1.848482479e+09 y_1_4
   + 1.173456307e+09 y_1_5 + 1.487228205e+09 y_1_6 + 1.086384835e+09 y_1_7
   - 2.063811627e+09 y_1_8 + 1.88158972e+09 y_1_9 - 1.047384954e+09 y_1_10
   + 1.242205824e+09 y_1_11 + 1.751343574e+09 y_1_12
   + 1.464047058e+09 y_1_13 + 1.512804699e+09 y_1_14
   + 1.146981936e+09 y_1_15 + 1.046004886e+09 y_1_16
   - 8.82909287e+08 y_1_17 + 1.488356319e+09 y_1_18
   - 1.753762536e+09 y_1_19 - 9.84605107e+08 y_1_20 + 9.1093223e+08 y_1_21
   - 1.441025539e+09 y_1_22 >= 0
 R1: y_1_6 + y_1_7 + y_1_8 + y_1_9 + y_1_10 = 1
 R2: y_1_16 + y_1_17 + y_1_18 = 0
 R3: - y_1_6 + y_1_11 + y_1_12 + y_1_13 = 0
 R4: y_1_0 + y_1_1 + y_1_2 - y_1_9 = 0
 R5: - y_1_0 + y_1_3 + y_1_4 - y_1_8 - y_1_11 = 0
 R6: - y_1_2 + y_1_14 + y_1_15 - y_1_17 = 0
 R7: - y_1_10 - y_1_13 - y_1_16 + y_1_19 + y_1_20 = 0
 R8: - y_1_7 - y_1_12 + y_1_21 = 0
 R9: - y_1_4 - y_1_15 - y_1_18 - y_1_19 + y_1_22 = 0
 R10: - y_1_1 - y_1_3 + y_1_5 = 0
 R11: - y_1_5 - y_1_14 - y_1_20 - y_1_21 - y_1_22 = -1
Bounds
 y_1_0 <= 1
 y_1_1 <= 1
 y_1_2 <= 1
 y_1_3 <= 1
 y_1_4 <= 1
 y_1_5 <= 1
 y_1_6 <= 1
 y_1_7 <= 1
 y_1_8 <= 1
 y_1_9 <= 1
 y_1_10 <= 1
 y_1_11 <= 1
 y_1_12 <= 1
 y_1_13 <= 1
 y_1_14 <= 1
 y_1_15 <= 1
 y_1_16 <= 1
 y_1_17 <= 1
 y_1_18 <= 1
 y_1_19 <= 1
 y_1_20 <= 1
 y_1_21 <= 1
 y_1_22 <= 1
End
